benchmarks_vrp/CMT4/fixed_c/CMT4_3.vrp
NAME: CMT4_3
TYPE: CVRP
COMMENT: 1028.42 - Cluster Nr.3
DIMENSION: 15
CAPACITY: 200
EDGE_WEIGHT_TYPE: EUC_2D
NODE_COORD_TYPE: TWOD_COORDS
NODE_COORD_SECTION: 
11 5 25
14 10 17
15 10 20
1 23 3
5 12 24
2 15 19
12 11 14
10 4 18
13 13 13
6 35 35
4 15 10
7 5 6
3 5 5
9 18 18
8 21 10
DEPOT_SECTION: 
6
-1
DEMAND_SECTION: 
8 13
3 16
1 7
11 23
7 7
13 9
10 35
4 20
2 1
9 17
15 19
5 13
14 27
6 0
12 18
EOF
