benchmarks_vrp/CMT4/fixed_c/CMT4_3.tour
NAME: CMT4_3 solution
TYPE: TOUR
TOUR_SECTION:
6 8 1 4 13 12 7 3 10 11 5 -1
6 9 2 14 15 -1
-1
EOF